\ Model MasterKnapsack
\ LP format - for model browsing. Use MPS format to capture full model detail.
Minimize
  3 sa_0 + 3 sa_1
Subject To
 beta_0: 0.1 sa_0 + 0.1 sa_1 = 1
 beta_uu_tp_1_PPE-1: >= 0
 beta_uu_tp_1_PPE-2: >= 0
 beta_uu_tp_2_PPE-1: >= 0
 beta_uu_tp_2_PPE-2: >= 0
 beta_uu_tp_3_PPE-1: >= 0
 beta_uu_tp_3_PPE-2: >= 0
 beta_uu_tp_4_PPE-1: >= 0
 beta_uu_tp_4_PPE-2: >= 0
 beta_uu_tp_5_PPE-1: >= 0
 beta_uu_tp_5_PPE-2: >= 0
 beta_uu_tp_6_PPE-1: >= 0
 beta_uu_tp_6_PPE-2: >= 0
 beta_uu_tp_7_PPE-1: >= 0
 beta_uu_tp_7_PPE-2: >= 0
 beta_uu_tp_8_PPE-1: >= 0
 beta_uu_tp_8_PPE-2: >= 0
 beta_uu_tp_9_PPE-1: >= 0
 beta_uu_tp_9_PPE-2: >= 0
 beta_uu_tp_10_PPE-1: >= 0
 beta_uu_tp_10_PPE-2: >= 0
 beta_uu_tp_11_PPE-1: >= 0
 beta_uu_tp_11_PPE-2: >= 0
 beta_uu_tp_12_PPE-1: >= 0
 beta_uu_tp_12_PPE-2: >= 0
 beta_uu_tp_13_PPE-1: >= 0
 beta_uu_tp_13_PPE-2: >= 0
 beta_uu_tp_14_PPE-1: >= 0
 beta_uu_tp_14_PPE-2: >= 0
 beta_ue_tp_1_PPE-1: 2 sa_0 + 2 sa_1 >= 20
 beta_ue_tp_1_PPE-2: 2 sa_0 + 2 sa_1 >= 20
 beta_ue_tp_2_PPE-1: 2 sa_0 + 2 sa_1 >= 20
 beta_ue_tp_2_PPE-2: 2 sa_0 + 2 sa_1 >= 20
 beta_ue_tp_3_PPE-1: 2 sa_0 + 2 sa_1 >= 20
 beta_ue_tp_3_PPE-2: 2 sa_0 + 2 sa_1 >= 20
 beta_ue_tp_4_PPE-1: 2 sa_0 + 2 sa_1 >= 20
 beta_ue_tp_4_PPE-2: 2 sa_0 + 2 sa_1 >= 20
 beta_ue_tp_5_PPE-1: 2 sa_0 + 2 sa_1 >= 20
 beta_ue_tp_5_PPE-2: 2 sa_0 + 2 sa_1 >= 20
 beta_ue_tp_6_PPE-1: 2 sa_0 + 2 sa_1 >= 20
 beta_ue_tp_6_PPE-2: 2 sa_0 + 2 sa_1 >= 20
 beta_ue_tp_7_PPE-1: 2 sa_0 + 2 sa_1 >= 20
 beta_ue_tp_7_PPE-2: 2 sa_0 + 2 sa_1 >= 20
 beta_ue_tp_8_PPE-1: 2 sa_0 + 2 sa_1 >= 20
 beta_ue_tp_8_PPE-2: 2 sa_0 + 2 sa_1 >= 20
 beta_ue_tp_9_PPE-1: 2 sa_0 + 2 sa_1 >= 20
 beta_ue_tp_9_PPE-2: 2 sa_0 + 2 sa_1 >= 20
 beta_ue_tp_10_PPE-1: 2 sa_0 + 2 sa_1 >= 20
 beta_ue_tp_10_PPE-2: 2 sa_0 + 2 sa_1 >= 20
 beta_ue_tp_11_PPE-1: 2 sa_0 + 2 sa_1 >= 20
 beta_ue_tp_11_PPE-2: 2 sa_0 + 2 sa_1 >= 20
 beta_ue_tp_12_PPE-1: 2 sa_0 + 2 sa_1 >= 20
 beta_ue_tp_12_PPE-2: 2 sa_0 + 2 sa_1 >= 20
 beta_ue_tp_13_PPE-1: 2 sa_0 + 2 sa_1 >= 20
 beta_ue_tp_13_PPE-2: 2 sa_0 + 2 sa_1 >= 20
 beta_ue_tp_14_PPE-1: 2 sa_0 + 2 sa_1 >= 20
 beta_ue_tp_14_PPE-2: 2 sa_0 + 2 sa_1 >= 20
 beta_pe_dc_Complexity-1_CPU-1: 0.1 sa_0 + 0.1 sa_1 >= 0
 beta_pe_dc_Complexity-1_CPU-2: 0.1 sa_0 + 0.1 sa_1 >= 0
 beta_pe_dc_Complexity-2_CPU-1: 0.05 sa_0 + 0.05 sa_1 >= 0
 beta_pe_dc_Complexity-2_CPU-2: 0.05 sa_0 + 0.05 sa_1 >= 0
Bounds
End
